NAME : prob5a
TYPE : PDTSP
DIMENSION : 11
EDGE_WEIGHT_TYPE : EUC_2D
NODE_COORD_SECTION
1 454 42
2 336 835
3 2 565
4 990 188
5 366 750
6 573 351
7 64 133
8 154 951
9 217 585
10 140 807
11 211 622
PICKUP_AND_DELIVERY_SECTION
1 0 0 0 0 0 0
2 0 0 0 0 7 0
3 0 0 0 0 8 0
4 0 0 0 0 9 0
5 0 0 0 0 10 0
6 0 0 0 0 11 0
7 0 0 0 0 0 2
8 0 0 0 0 0 3
9 0 0 0 0 0 4
10 0 0 0 0 0 5
11 0 0 0 0 0 6
DEPOT_SECTION
1 
-1
EOF
